2021-03-25 -44.76 54.55 0 0 0.0 0.0
2021-03-25 -3.78 36.51 0 0 0.0 30.33
2021-03-25 -3.25 41.11 0 0 0.0 30.87
2021-03-25 -0.07 0.14 0 0 0.0 4.31
2021-03-25 -43.24 14.5 11 11 66.29 36.72
2021-03-25 -43.24 14.5 11 11 66.29 36.72
2021-03-25 -12.19 13.59 2 2 77.58 36.72
2021-03-25 -43.24 14.5 11 11 66.29 36.72
2021-03-25 -12.87 10.95 1 1 87.99 18.67
2021-03-25 -12.87 10.95 1 1 87.99 18.67
2021-03-25 -0.6 0.17 0 0 0.0 12.75
2021-03-25 -86.5 46.71 0 0 0.0 24.51
2021-03-25 -86.5 46.71 0 0 0.0 24.51
2021-03-25 0.07 0.39 0 0 0.0 8.7
2021-03-25 0.07 0.39 0 0 0.0 8.7
2021-03-25 -0.02 0.26 0 0 0.0 3.37
2021-03-25 -0.02 0.26 0 0 0.0 3.37
2021-03-25 -0.02 0.26 0 0 0.0 3.37
2021-03-25 0.22 0.43 0 0 0.0 4.54
2021-03-25 -2.97 22.5 0 0 0.0 6.94
2021-03-25 -3.61 42.59 0 0 0.0 42.11
2021-03-25 -4.94 28.86 0 0 0.0 42.15
2021-03-25 -8.89 40.92 0 0 0.0 21.8
2021-03-25 -49.43 75.29 0 0 81.13 0.0
2021-03-25 -16.67 23.57 9 8 41.29 25.67
2021-03-25 -15.54 15.94 10 8 90.71 83.84
2021-03-25 -20.04 43.1 0 0 0.0 86.79
2021-03-25 -16.15 17.99 4 4 93.21 73.19
2021-03-26 -10.02 13.25 13 1 94.0 178.31
2021-03-26 -17.36 36.28 11 3 85.91 108.6
2021-03-26 -33.54 47.34 0 0 0.0 98.1
2021-03-26 -16.29 72.07 0 0 0.0 70.94
2021-03-26 -16.28 29.55 0 0 0.0 21.22
2021-03-26 -19.04 38.65 26 10 84.26 206.32
